AME : levi30_28
COMMENT : 30: 40x18 -city problem (levikoppenhol)
TYPE : TSP
DIMENSION : 30
EDGE_WEIGHT_TYPE : EUC_2D
NODE_COORD_SECTION
1 7 27
2 15 1
3 11 17
4 6 17
5 18 29
6 12 14
7 13 23
8 8 32
9 18 5
10 18 21
11 1 1
12 9 36
13 1 16
14 16 24
15 11 5
16 7 1
17 0 12
18 10 12
19 14 10
20 18 37
21 1 28
22 0 10
23 18 2
24 5 32
25 18 39
26 7 9
27 3 24
28 15 22
29 2 12
30 18 22
EOF